100 125 13009354
23 20 24 38 23 58 51 43 39 21 24 50 45 42 54 29 24 22 56 24 20 45 23 34 38
44 56 41 57 57 49 79 35 68 65 80 61 59 69 68 75 39 42 53 49 66 53 50 75 28
1012 1120 984 2166 1311 2842 4029 1505 2652 1365 1920 3050 2655 2898 3672 2175 936 924 2968 1176 1320 2385 1150 2550 10641098
1117 1438 900 2682 1464 3002 5154 1740 2757 1305 1905 3496 3476 3345 3469 2873 894 866 3411 1129 1695 2519 1396 2365 11826686
